Instance Name : rc103
Authors       : Shobb<shobb@narod.ru>
Date          : 2018-jun-12
Reference     : http://shobb.narod.ru/vrppd.html
Solution
Route 1 : 012 014 015 011 009 087 059 074 086 052 082 090
Route 2 : 061 042 043 044 040 038 041 072 071 093 094 080
Route 3 : 098 060 073 078 079 007 046 004 100 070
Route 4 : 064 020 022 049 019 018 048 021 025 057
Route 5 : 002 045 001 003 005 008 006 055 068
Route 6 : 083 024 023 076 089 063 085 051 091
Route 7 : 033 027 030 032 028 026 029 031 034
Route 8 : 069 088 053 010 013 016 017 047
Route 9 : 092 095 062 050 067 084 056 066
Route 10 : 081 039 036 035 037 054 096
Route 11 : 065 099 097 075 058 077
